\ SCIP STATISTICS
\   Problem name     : t_enlight_hard
\   Variables        : 200 (100 binary, 100 integer, 0 implicit integer, 0 continuous)
\   Constraints      : 100
Minimize
 Obj: +1 t_x#10#10 +1 t_x#1#1 +1 t_x#1#2 +1 t_x#1#3 +1 t_x#1#4 +1 t_x#1#5 +1 t_x#1#6 +1 t_x#1#7 +1 t_x#1#8
      +1 t_x#1#9 +1 t_x#1#10 +1 t_x#2#1 +1 t_x#2#2 +1 t_x#2#3 +1 t_x#2#4 +1 t_x#2#5 +1 t_x#2#6 +1 t_x#2#7
      +1 t_x#2#8 +1 t_x#2#9 +1 t_x#2#10 +1 t_x#3#1 +1 t_x#3#2 +1 t_x#3#3 +1 t_x#3#4 +1 t_x#3#5 +1 t_x#3#6
      +1 t_x#3#7 +1 t_x#3#8 +1 t_x#3#9 +1 t_x#3#10 +1 t_x#4#1 +1 t_x#4#2 +1 t_x#4#3 +1 t_x#4#4 +1 t_x#4#5
      +1 t_x#4#6 +1 t_x#4#7 +1 t_x#4#8 +1 t_x#4#9 +1 t_x#4#10 +1 t_x#5#1 +1 t_x#5#2 +1 t_x#5#3 +1 t_x#5#4
      +1 t_x#5#5 +1 t_x#5#6 +1 t_x#5#7 +1 t_x#5#8 +1 t_x#5#9 +1 t_x#5#10 +1 t_x#6#1 +1 t_x#6#2 +1 t_x#6#3
      +1 t_x#6#4 +1 t_x#6#5 +1 t_x#6#6 +1 t_x#6#7 +1 t_x#6#8 +1 t_x#6#9 +1 t_x#6#10 +1 t_x#7#1 +1 t_x#7#2
      +1 t_x#7#3 +1 t_x#7#4 +1 t_x#7#5 +1 t_x#7#6 +1 t_x#7#7 +1 t_x#7#8 +1 t_x#7#9 +1 t_x#7#10 +1 t_x#8#1
      +1 t_x#8#2 +1 t_x#8#3 +1 t_x#8#4 +1 t_x#8#5 +1 t_x#8#6 +1 t_x#8#7 +1 t_x#8#8 +1 t_x#8#9 +1 t_x#8#10
      +1 t_x#9#1 +1 t_x#9#2 +1 t_x#9#3 +1 t_x#9#4 +1 t_x#9#5 +1 t_x#9#6 +1 t_x#9#7 +1 t_x#9#8 +1 t_x#9#9
      +1 t_x#9#10 +1 t_x#10#1 +1 t_x#10#2 +1 t_x#10#3 +1 t_x#10#4 +1 t_x#10#5 +1 t_x#10#6 +1 t_x#10#7
      +1 t_x#10#8 +1 t_x#10#9
Subject to
 upper_border_7: +1 t_x#1#7 +1 t_x#1#8 +1 t_x#1#9 +1 t_x#2#8 -2 t_y#1#8 = -1
 lower_border_8: +1 t_x#10#10 +1 t_x#9#9 +1 t_x#10#8 +1 t_x#10#9 -2 t_y#10#9 = -1
 upper_border_5: +1 t_x#1#5 +1 t_x#1#6 +1 t_x#1#7 +1 t_x#2#6 -2 t_y#1#6 = +0
 upper_border_4: +1 t_x#1#4 +1 t_x#1#5 +1 t_x#1#6 +1 t_x#2#5 -2 t_y#1#5 = +0
 inner_area_5: +1 t_x#1#6 +1 t_x#2#5 +1 t_x#2#6 +1 t_x#2#7 +1 t_x#3#6 -2 t_y#2#6 = +0
 inner_area_55: +1 t_x#7#8 +1 t_x#8#7 +1 t_x#8#8 +1 t_x#8#9 +1 t_x#9#8 -2 t_y#8#8 = -1
 upper_border_3: +1 t_x#1#3 +1 t_x#1#4 +1 t_x#1#5 +1 t_x#2#4 -2 t_y#1#4 = +0
 right_upper_c@62: +1 t_x#1#9 +1 t_x#1#10 +1 t_x#2#10 -2 t_y#1#10 = +0
 inner_area_3: +1 t_x#1#4 +1 t_x#2#3 +1 t_x#2#4 +1 t_x#2#5 +1 t_x#3#4 -2 t_y#2#4 = +0
 inner_area_4: +1 t_x#1#5 +1 t_x#2#4 +1 t_x#2#5 +1 t_x#2#6 +1 t_x#3#5 -2 t_y#2#5 = +0
 inner_area_2: +1 t_x#1#3 +1 t_x#2#2 +1 t_x#2#3 +1 t_x#2#4 +1 t_x#3#3 -2 t_y#2#3 = +0
 inner_area_64: +1 t_x#8#9 +1 t_x#9#8 +1 t_x#9#9 +1 t_x#9#10 +1 t_x#10#9 -2 t_y#9#9 = +0
 upper_border_2: +1 t_x#1#2 +1 t_x#1#3 +1 t_x#1#4 +1 t_x#2#3 -2 t_y#1#3 = +0
 right_border_8: +1 t_x#10#10 +1 t_x#8#10 +1 t_x#9#9 +1 t_x#9#10 -2 t_y#9#10 = -1
 inner_area_62: +1 t_x#8#7 +1 t_x#9#6 +1 t_x#9#7 +1 t_x#9#8 +1 t_x#10#7 -2 t_y#9#7 = -1
 inner_area_15: +1 t_x#2#8 +1 t_x#3#7 +1 t_x#3#8 +1 t_x#3#9 +1 t_x#4#8 -2 t_y#3#8 = +0
 left_lower_co@61: +1 t_x#9#1 +1 t_x#10#1 +1 t_x#10#2 -2 t_y#10#1 = -1
 inner_area_6: +1 t_x#1#7 +1 t_x#2#6 +1 t_x#2#7 +1 t_x#2#8 +1 t_x#3#7 -2 t_y#2#7 = -1
 inner_area_13: +1 t_x#2#6 +1 t_x#3#5 +1 t_x#3#6 +1 t_x#3#7 +1 t_x#4#6 -2 t_y#3#6 = -1
 inner_area_14: +1 t_x#2#7 +1 t_x#3#6 +1 t_x#3#7 +1 t_x#3#8 +1 t_x#4#7 -2 t_y#3#7 = +0
 right_border_2: +1 t_x#2#10 +1 t_x#3#9 +1 t_x#3#10 +1 t_x#4#10 -2 t_y#3#10 = -1
 upper_border_1: +1 t_x#1#1 +1 t_x#1#2 +1 t_x#1#3 +1 t_x#2#2 -2 t_y#1#2 = +0
 inner_area_1: +1 t_x#1#2 +1 t_x#2#1 +1 t_x#2#2 +1 t_x#2#3 +1 t_x#3#2 -2 t_y#2#2 = +0
 left_upper_co@60: +1 t_x#1#1 +1 t_x#1#2 +1 t_x#2#1 -2 t_y#1#1 = -1
 inner_area_11: +1 t_x#2#4 +1 t_x#3#3 +1 t_x#3#4 +1 t_x#3#5 +1 t_x#4#4 -2 t_y#3#4 = +0
 inner_area_12: +1 t_x#2#5 +1 t_x#3#4 +1 t_x#3#5 +1 t_x#3#6 +1 t_x#4#5 -2 t_y#3#5 = -1
 lower_border_7: +1 t_x#9#8 +1 t_x#10#7 +1 t_x#10#8 +1 t_x#10#9 -2 t_y#10#8 = +0
 right_border_3: +1 t_x#3#10 +1 t_x#4#9 +1 t_x#4#10 +1 t_x#5#10 -2 t_y#4#10 = +0
 inner_area_22: +1 t_x#3#7 +1 t_x#4#6 +1 t_x#4#7 +1 t_x#4#8 +1 t_x#5#7 -2 t_y#4#7 = +0
 right_lower_c@63: +1 t_x#10#10 +1 t_x#9#10 +1 t_x#10#9 -2 t_y#10#10 = +0
 inner_area_20: +1 t_x#3#5 +1 t_x#4#4 +1 t_x#4#5 +1 t_x#4#6 +1 t_x#5#5 -2 t_y#4#5 = +0
 inner_area_21: +1 t_x#3#6 +1 t_x#4#5 +1 t_x#4#6 +1 t_x#4#7 +1 t_x#5#6 -2 t_y#4#6 = +0
 left_border_1: +1 t_x#1#1 +1 t_x#2#1 +1 t_x#2#2 +1 t_x#3#1 -2 t_y#2#1 = +0
 inner_area_10: +1 t_x#2#3 +1 t_x#3#2 +1 t_x#3#3 +1 t_x#3#4 +1 t_x#4#3 -2 t_y#3#3 = +0
 inner_area_9: +1 t_x#2#2 +1 t_x#3#1 +1 t_x#3#2 +1 t_x#3#3 +1 t_x#4#2 -2 t_y#3#2 = -1
 left_border_2: +1 t_x#2#1 +1 t_x#3#1 +1 t_x#3#2 +1 t_x#4#1 -2 t_y#3#1 = +0
 inner_area_19: +1 t_x#3#4 +1 t_x#4#3 +1 t_x#4#4 +1 t_x#4#5 +1 t_x#5#4 -2 t_y#4#4 = +0
 inner_area_63: +1 t_x#8#8 +1 t_x#9#7 +1 t_x#9#8 +1 t_x#9#9 +1 t_x#10#8 -2 t_y#9#8 = -1
 inner_area_32: +1 t_x#4#9 +1 t_x#5#8 +1 t_x#5#9 +1 t_x#5#10 +1 t_x#6#9 -2 t_y#5#9 = +0
 inner_area_29: +1 t_x#4#6 +1 t_x#5#5 +1 t_x#5#6 +1 t_x#5#7 +1 t_x#6#6 -2 t_y#5#6 = -1
 inner_area_30: +1 t_x#4#7 +1 t_x#5#6 +1 t_x#5#7 +1 t_x#5#8 +1 t_x#6#7 -2 t_y#5#7 = +0
 left_border_3: +1 t_x#3#1 +1 t_x#4#1 +1 t_x#4#2 +1 t_x#5#1 -2 t_y#4#1 = +0
 inner_area_18: +1 t_x#3#3 +1 t_x#4#2 +1 t_x#4#3 +1 t_x#4#4 +1 t_x#5#3 -2 t_y#4#3 = +0
 inner_area_17: +1 t_x#3#2 +1 t_x#4#1 +1 t_x#4#2 +1 t_x#4#3 +1 t_x#5#2 -2 t_y#4#2 = +0
 left_border_4: +1 t_x#4#1 +1 t_x#5#1 +1 t_x#5#2 +1 t_x#6#1 -2 t_y#5#1 = -1
 inner_area_27: +1 t_x#4#4 +1 t_x#5#3 +1 t_x#5#4 +1 t_x#5#5 +1 t_x#6#4 -2 t_y#5#4 = +0
 inner_area_28: +1 t_x#4#5 +1 t_x#5#4 +1 t_x#5#5 +1 t_x#5#6 +1 t_x#6#5 -2 t_y#5#5 = +0
 inner_area_38: +1 t_x#5#7 +1 t_x#6#6 +1 t_x#6#7 +1 t_x#6#8 +1 t_x#7#7 -2 t_y#6#7 = +0
 inner_area_39: +1 t_x#5#8 +1 t_x#6#7 +1 t_x#6#8 +1 t_x#6#9 +1 t_x#7#8 -2 t_y#6#8 = -1
 inner_area_36: +1 t_x#5#5 +1 t_x#6#4 +1 t_x#6#5 +1 t_x#6#6 +1 t_x#7#5 -2 t_y#6#5 = +0
 inner_area_37: +1 t_x#5#6 +1 t_x#6#5 +1 t_x#6#6 +1 t_x#6#7 +1 t_x#7#6 -2 t_y#6#6 = +0
 inner_area_26: +1 t_x#4#3 +1 t_x#5#2 +1 t_x#5#3 +1 t_x#5#4 +1 t_x#6#3 -2 t_y#5#3 = +0
 inner_area_25: +1 t_x#4#2 +1 t_x#5#1 +1 t_x#5#2 +1 t_x#5#3 +1 t_x#6#2 -2 t_y#5#2 = +0
 inner_area_34: +1 t_x#5#3 +1 t_x#6#2 +1 t_x#6#3 +1 t_x#6#4 +1 t_x#7#3 -2 t_y#6#3 = -1
 inner_area_33: +1 t_x#5#2 +1 t_x#6#1 +1 t_x#6#2 +1 t_x#6#3 +1 t_x#7#2 -2 t_y#6#2 = +0
 inner_area_35: +1 t_x#5#4 +1 t_x#6#3 +1 t_x#6#4 +1 t_x#6#5 +1 t_x#7#4 -2 t_y#6#4 = +0
 inner_area_45: +1 t_x#6#6 +1 t_x#7#5 +1 t_x#7#6 +1 t_x#7#7 +1 t_x#8#6 -2 t_y#7#6 = +0
 inner_area_46: +1 t_x#6#7 +1 t_x#7#6 +1 t_x#7#7 +1 t_x#7#8 +1 t_x#8#7 -2 t_y#7#7 = -1
 left_border_5: +1 t_x#5#1 +1 t_x#6#1 +1 t_x#6#2 +1 t_x#7#1 -2 t_y#6#1 = +0
 inner_area_41: +1 t_x#6#2 +1 t_x#7#1 +1 t_x#7#2 +1 t_x#7#3 +1 t_x#8#2 -2 t_y#7#2 = +0
 left_border_6: +1 t_x#6#1 +1 t_x#7#1 +1 t_x#7#2 +1 t_x#8#1 -2 t_y#7#1 = +0
 inner_area_43: +1 t_x#6#4 +1 t_x#7#3 +1 t_x#7#4 +1 t_x#7#5 +1 t_x#8#4 -2 t_y#7#4 = -1
 inner_area_44: +1 t_x#6#5 +1 t_x#7#4 +1 t_x#7#5 +1 t_x#7#6 +1 t_x#8#5 -2 t_y#7#5 = +0
 inner_area_52: +1 t_x#7#5 +1 t_x#8#4 +1 t_x#8#5 +1 t_x#8#6 +1 t_x#9#5 -2 t_y#8#5 = -1
 inner_area_53: +1 t_x#7#6 +1 t_x#8#5 +1 t_x#8#6 +1 t_x#8#7 +1 t_x#9#6 -2 t_y#8#6 = +0
 left_border_7: +1 t_x#7#1 +1 t_x#8#1 +1 t_x#8#2 +1 t_x#9#1 -2 t_y#8#1 = -1
 inner_area_42: +1 t_x#6#3 +1 t_x#7#2 +1 t_x#7#3 +1 t_x#7#4 +1 t_x#8#3 -2 t_y#7#3 = +0
 inner_area_51: +1 t_x#7#4 +1 t_x#8#3 +1 t_x#8#4 +1 t_x#8#5 +1 t_x#9#4 -2 t_y#8#4 = +0
 inner_area_50: +1 t_x#7#3 +1 t_x#8#2 +1 t_x#8#3 +1 t_x#8#4 +1 t_x#9#3 -2 t_y#8#3 = +0
 inner_area_49: +1 t_x#7#2 +1 t_x#8#1 +1 t_x#8#2 +1 t_x#8#3 +1 t_x#9#2 -2 t_y#8#2 = +0
 inner_area_58: +1 t_x#8#3 +1 t_x#9#2 +1 t_x#9#3 +1 t_x#9#4 +1 t_x#10#3 -2 t_y#9#3 = +0
 inner_area_57: +1 t_x#8#2 +1 t_x#9#1 +1 t_x#9#2 +1 t_x#9#3 +1 t_x#10#2 -2 t_y#9#2 = -1
 left_border_8: +1 t_x#8#1 +1 t_x#9#1 +1 t_x#9#2 +1 t_x#10#1 -2 t_y#9#1 = +0
 inner_area_59: +1 t_x#8#4 +1 t_x#9#3 +1 t_x#9#4 +1 t_x#9#5 +1 t_x#10#4 -2 t_y#9#4 = +0
 inner_area_60: +1 t_x#8#5 +1 t_x#9#4 +1 t_x#9#5 +1 t_x#9#6 +1 t_x#10#5 -2 t_y#9#5 = +0
 lower_border_3: +1 t_x#9#4 +1 t_x#10#3 +1 t_x#10#4 +1 t_x#10#5 -2 t_y#10#4 = -1
 lower_border_2: +1 t_x#9#3 +1 t_x#10#2 +1 t_x#10#3 +1 t_x#10#4 -2 t_y#10#3 = -1
 lower_border_1: +1 t_x#9#2 +1 t_x#10#1 +1 t_x#10#2 +1 t_x#10#3 -2 t_y#10#2 = +0
 right_border_4: +1 t_x#4#10 +1 t_x#5#9 +1 t_x#5#10 +1 t_x#6#10 -2 t_y#5#10 = +0
 inner_area_40: +1 t_x#5#9 +1 t_x#6#8 +1 t_x#6#9 +1 t_x#6#10 +1 t_x#7#9 -2 t_y#6#9 = +0
 inner_area_47: +1 t_x#6#8 +1 t_x#7#7 +1 t_x#7#8 +1 t_x#7#9 +1 t_x#8#8 -2 t_y#7#8 = +0
 inner_area_54: +1 t_x#7#7 +1 t_x#8#6 +1 t_x#8#7 +1 t_x#8#8 +1 t_x#9#7 -2 t_y#8#7 = +0
 inner_area_61: +1 t_x#8#6 +1 t_x#9#5 +1 t_x#9#6 +1 t_x#9#7 +1 t_x#10#6 -2 t_y#9#6 = +0
 right_border_5: +1 t_x#5#10 +1 t_x#6#9 +1 t_x#6#10 +1 t_x#7#10 -2 t_y#6#10 = +0
 lower_border_4: +1 t_x#9#5 +1 t_x#10#4 +1 t_x#10#5 +1 t_x#10#6 -2 t_y#10#5 = -1
 inner_area_48: +1 t_x#6#9 +1 t_x#7#8 +1 t_x#7#9 +1 t_x#7#10 +1 t_x#8#9 -2 t_y#7#9 = -1
 lower_border_5: +1 t_x#9#6 +1 t_x#10#5 +1 t_x#10#6 +1 t_x#10#7 -2 t_y#10#6 = +0
 lower_border_6: +1 t_x#9#7 +1 t_x#10#6 +1 t_x#10#7 +1 t_x#10#8 -2 t_y#10#7 = -1
 right_border_6: +1 t_x#6#10 +1 t_x#7#9 +1 t_x#7#10 +1 t_x#8#10 -2 t_y#7#10 = +0
 inner_area_56: +1 t_x#7#9 +1 t_x#8#8 +1 t_x#8#9 +1 t_x#8#10 +1 t_x#9#9 -2 t_y#8#9 = +0
 right_border_7: +1 t_x#7#10 +1 t_x#8#9 +1 t_x#8#10 +1 t_x#9#10 -2 t_y#8#10 = -1
 inner_area_7: +1 t_x#1#8 +1 t_x#2#7 +1 t_x#2#8 +1 t_x#2#9 +1 t_x#3#8 -2 t_y#2#8 = +0
 inner_area_23: +1 t_x#3#8 +1 t_x#4#7 +1 t_x#4#8 +1 t_x#4#9 +1 t_x#5#8 -2 t_y#4#8 = -1
 inner_area_24: +1 t_x#3#9 +1 t_x#4#8 +1 t_x#4#9 +1 t_x#4#10 +1 t_x#5#9 -2 t_y#4#9 = +0
 inner_area_8: +1 t_x#1#9 +1 t_x#2#8 +1 t_x#2#9 +1 t_x#2#10 +1 t_x#3#9 -2 t_y#2#9 = +0
 upper_border_8: +1 t_x#1#8 +1 t_x#1#9 +1 t_x#1#10 +1 t_x#2#9 -2 t_y#1#9 = +0
 right_border_1: +1 t_x#1#10 +1 t_x#2#9 +1 t_x#2#10 +1 t_x#3#10 -2 t_y#2#10 = +0
 inner_area_16: +1 t_x#2#9 +1 t_x#3#8 +1 t_x#3#9 +1 t_x#3#10 +1 t_x#4#9 -2 t_y#3#9 = +0
 inner_area_31: +1 t_x#4#8 +1 t_x#5#7 +1 t_x#5#8 +1 t_x#5#9 +1 t_x#6#8 -2 t_y#5#8 = +0
 upper_border_6: +1 t_x#1#6 +1 t_x#1#7 +1 t_x#1#8 +1 t_x#2#7 -2 t_y#1#7 = +0
 newcut_1: +1.0 t_x#1#7 -1.0 t_y#1#7 <= 0.0
 newcut_2: +1.0 t_x#2#2 -1.0 t_y#2#3 <= 0.0
 newcut_3: +1.0 t_x#1#7 -1.0 t_y#1#6 <= 0.0
 newcut_4: +1.0 t_x#3#5 -1.0 t_y#2#5 <= 0.0
 newcut_5: +1.0 t_x#7#3 -1.0 t_y#7#3 <= 0.0
 newcut_6: +1.0 t_x#9#1 -1.0 t_y#9#1 <= 0.0
 newcut_7: +1.0 t_x#3#5 -1.0 t_y#3#4 <= 0.0
 newcut_8: +1.0 t_x#5#6 -1.0 t_y#5#5 <= 0.0
 newcut_9: +1.0 t_x#5#8 -1.0 t_y#5#8 <= 0.0
 newcut_10: +1.0 t_x#2#10 -1.0 t_y#1#10 <= 0.0
 newcut_11: +1.0 t_x#3#5 -1.0 t_y#4#5 <= 0.0
 newcut_12: +1.0 t_x#5#2 -1.0 t_y#5#3 <= 0.0
 newcut_13: +1.0 t_x#9#5 -1.0 t_y#9#5 <= 0.0
 newcut_14: +1.0 t_x#5#8 -1.0 t_y#5#9 <= 0.0
 newcut_15: +1.0 t_x#7#10 +1.0 t_x#8#9 +1.0 t_x#8#10 -1.0 t_y#8#10 -1.0 t_y#6#10 -1.0 t_y#8#9 <= -1.0
 newcut_16: +1.0 t_x#10#10 +1.0 t_x#10#8 +1.0 t_x#10#9 -1.0 t_y#10#10 -1.0 t_y#10#9 -1.0 t_y#10#8 <= -1.0
 newcut_17: +1.0 t_x#8#7 -1.0 t_y#8#6 <= 0.0
 newcut_18: +1.0 t_x#7#8 -1.0 t_y#7#8 <= 0.0
 newcut_19: +1.0 t_x#2#8 -1.0 t_y#2#8 <= 0.0
 newcut_20: +1.0 t_x#2#8 -1.0 t_y#3#8 <= 0.0
 newcut_21: +1.0 t_x#3#10 -1.0 t_y#2#10 <= 0.0
 newcut_22: +1.0 t_x#2#8 -1.0 t_y#2#9 <= 0.0
 newcut_23: -1.0 t_x#1#2 -2.0 t_x#1#3 -2.0 t_x#2#3 -1.0 t_x#2#4 -2.0 t_y#1#1 +2.0 t_y#1#2 -2.0 t_y#3#2 <= -4.0
 newcut_24: +1.0 t_x#9#1 -1.0 t_x#9#3 -1.0 t_x#10#3 -1.0 t_y#10#1 -1.0 t_y#8#1 +1.0 t_y#10#3 -1.0 t_y#9#2 <= -2.0
 newcut_25: +1.0 t_x#10#7 +1.0 t_x#10#8 -1.0 t_y#10#8 -1.0 t_y#10#7 <= -1.0
 newcut_26: +1.0 t_x#4#6 +1.0 t_x#5#7 -1.0 t_y#5#6 -1.0 t_y#4#7 <= -1.0
 newcut_27: +1.0 t_x#1#1 -1.0 t_y#2#1 <= 0.0
 newcut_28: +1.0 t_x#8#4 +1.0 t_x#9#4 +1.0 t_x#10#4 -1.0 t_y#9#4 -1.0 t_y#8#4 <= -0.0
 newcut_29: -1.0 t_x#8#8 -1.0 t_x#10#5 -1.0 t_x#10#6 +1.0 t_y#10#6 -1.0 t_y#9#7 +1.0 t_y#8#7 -1.0 t_y#7#6 <= -1.0
 newcut_30: +1.0 t_x#3#6 -1.0 t_y#2#6 <= 0.0
 newcut_31: +1.0 t_x#2#1 -1.0 t_y#2#1 <= 0.0
 newcut_32: +1.0 t_x#3#9 -1.0 t_y#4#9 <= 0.0
 newcut_33: +1.0 t_x#9#7 -1.0 t_y#8#7 <= 0.0
 newcut_34: +1.0 t_x#3#2 -1.0 t_y#4#2 <= 0.0
 newcut_35: +1.0 t_x#6#7 -1.0 t_y#5#7 <= 0.0
 newcut_36: +1.0 t_x#3#6 -1.0 t_y#4#6 <= 0.0
 newcut_37: +1.0 t_x#6#6 -1.0 t_y#7#6 <= 0.0
 newcut_38: +1.0 t_x#6#1 -1.0 t_y#6#1 <= 0.0
 newcut_39: +1.0 t_x#3#2 -1.0 t_y#3#3 <= 0.0
 newcut_40: -1.0 t_x#3#7 -1.0 t_x#4#8 +1.0 t_y#3#8 <= 1.0
 newcut_41: -1.0 t_x#8#8 -1.0 t_x#9#8 -1.0 t_x#10#8 +1.0 t_y#9#8 <= 1.0
 newcut_42: +1.0 t_x#10#2 +1.0 t_x#10#3 -1.0 t_y#10#3 -1.0 t_y#10#2 <= -1.0
 newcut_43: +1.0 t_x#8#1 +1.0 t_x#9#1 -1.0 t_y#9#1 -1.0 t_y#8#1 <= -1.0
 newcut_44: -1.0 t_x#9#2 -1.0 t_x#9#3 -1.0 t_y#10#1 +1.0 t_y#9#1 -1.0 t_y#8#1 +1.0 t_y#9#2 <= -1.0
 newcut_45: +1.0 t_x#8#4 -1.0 t_y#8#4 <= 0.0
 newcut_46: +1.0 t_x#6#3 -1.0 t_y#7#3 <= 0.0
 newcut_47: +1.0 t_x#6#4 -1.0 t_y#5#4 <= 0.0
 newcut_48: +1.0 t_x#10#5 -1.0 t_y#10#6 <= 0.0
 newcut_49: +1.0 t_x#1#2 +1.0 t_x#2#1 -1.0 t_y#1#1 -1.0 t_y#2#2 <= -1.0
 newcut_50: +1.0 t_x#9#1 +1.0 t_x#10#1 -1.0 t_y#10#1 -1.0 t_y#9#1 <= -1.0
 newcut_51: -1.0 t_x#8#1 -1.0 t_x#9#2 -1.0 t_y#10#1 +1.0 t_y#9#1 <= -1.0
 newcut_52: +1.0 t_x#9#1 -1.0 t_y#10#1 -1.0 t_y#8#1 -1.0 t_y#9#2 <= -3.0
 newcut_53: -0.7375390566879929 t_x#1#6 +0.7375390566879929 t_x#1#7 -0.3694390715667312 t_x#1#9 +0.043148341020681706 t_x#2#8 -0.007960124981401615 t_x#2#9 +0.021574170510340853 t_x#2#10 -0.3549323017408128 t_x#3#4 +0.7098646034816254 t_x#3#5 -0.027674453206366995 t_x#3#6 -0.0014134801368840873 t_x#3#7 +0.021574170510340853 t_x#3#9 -0.010787085255170425 t_x#3#10 -0.0924713584288054 t_x#5#4 +0.0909090909090915 t_x#5#8 -0.0049099836333880474 t_x#5#10 -0.0924713584288054 t_x#7#2 -0.2774140752864162 t_x#7#4 +0.058622228834994496 t_x#7#8 +0.07082279422704969 t_x#7#10 -0.0924713584288054 t_x#8#3 -0.13123047165600368 t_x#8#4 -0.3332837375390571 t_x#8#8 +0.07082279422704969 t_x#8#9 +0.035411397113524846 t_x#8#10 +0.10742449040321424 t_x#9#1 -0.05371224520160712 t_x#9#2 -0.05371224520160712 t_x#9#3 -0.000595149531320396 t_x#9#6 -0.07082279422704969 t_x#9#8 -0.21484898080642847 t_x#10#5 -0.2624609433120074 t_x#10#6 -0.07082279422704969 t_x#10#8 -0.021574170510340853 t_y#1#10 -0.05371224520160712 t_y#10#1 -0.07082279422704969 t_y#8#10 -0.07082279422704969 t_y#6#10 -0.05371224520160712 t_y#9#1 -0.10742449040321424 t_y#8#1 -0.0122005653920541 t_y#10#9 +0.21484898080642847 t_y#10#6 -0.10742449040321424 t_y#10#4 -0.7375390566879929 t_y#1#7 +0.07082279422704969 t_y#9#8 -0.32108317214700194 t_y#9#7 -0.10742449040321424 t_y#9#2 -0.07082279422704969 t_y#8#9 +0.2624609433120074 t_y#8#7 -0.10742449040321424 t_y#8#5 -0.05862222883499559 t_y#7#9 -0.058622228834994496 t_y#7#8 -0.048802261568219735 t_y#7#7 -0.2624609433120074 t_y#7#6 -0.1849427168576108 t_y#6#3 -0.0909090909090915 t_y#5#8 -0.021574170510340853 t_y#4#9 -0.05906859098348493 t_y#4#8 -0.2624609433120074 t_y#4#6 -0.44740366016961824 t_y#4#5 -0.043148341020681706 t_y#2#9 -0.7375390566879929 t_y#2#7 +0.29013539651837444 t_y#2#6 -1.0 t_y#2#5 <= -2.643207855973817
 newcut_54: +1.0 t_x#1#2 -1.0 t_y#1#3 <= 0.0
 newcut_55: +1.0 t_x#1#2 -1.0 t_y#1#2 <= 0.0
 newcut_56: +1.0 t_x#3#4 -1.0 t_y#4#4 <= 0.0
 newcut_57: +1.0 t_x#3#4 -1.0 t_y#2#4 <= 0.0
 newcut_58: +1.0 t_x#7#1 -1.0 t_y#6#1 <= 0.0
 newcut_59: +1.0 t_x#4#1 -1.0 t_y#4#1 <= 0.0
 newcut_60: -1.0 t_x#6#1 -1.0 t_x#7#2 -1.0 t_x#8#1 +1.0 t_y#7#1 <= 0.0
 newcut_61: +1.0 t_x#3#9 -1.0 t_y#3#9 <= 0.0
 newcut_62: -1.0 t_x#8#8 -1.0 t_x#9#8 -1.0 t_y#10#9 +1.0 t_y#10#8 -1.0 t_y#10#7 +1.0 t_y#9#8 <= -1.0
 newcut_63: -0.020999959446489747 t_x#1#5 -0.06700791694641071 t_x#1#6 +0.09200239716305675 t_x#1#7 -0.03356478873874074 t_x#1#9 +0.0039201726678352285 t_x#2#8 -0.020425451383100007 t_x#2#9 +0.0019600863339176143 t_x#2#10 -0.032246799652141 t_x#3#4 +0.06449359930428199 t_x#3#5 -0.0025143176421286856 t_x#3#6 -0.00012841944946353934 t_x#3#7 +0.0019600863339176143 t_x#3#9 -0.000980043166958807 t_x#3#10 -0.008401335562274428 t_x#5#4 -0.08562197820023526 t_x#5#6 -0.05229375160524316 t_x#5#7 +0.07240716625587468 t_x#5#8 -0.00044608861392608947 t_x#5#10 -0.07722064263796084 t_x#6#2 +0.15444128527592169 t_x#6#4 -0.017535450526970378 t_x#6#8 -0.42277935736203925 t_x#7#2 +0.15444128527592169 t_x#7#3 -0.025204006686823283 t_x#7#4 +0.005326027693541596 t_x#7#8 -0.08137512447674713 t_x#7#9 +0.006434490309964003 t_x#7#10 -0.36666512713525495 t_x#8#3 +0.014683750208399952 t_x#8#4 +0.39174353058861194 t_x#8#7 -0.2015239108003011 t_x#8#8 +0.006434490309964003 t_x#8#9 +0.0032172451549820017 t_x#8#10 +0.4999999999999989 t_x#9#1 +0.49999999999999967 t_x#9#2 +0.4089455411415365 t_x#9#3 -0.3803603855287054 t_x#9#4 +0.11222846045356856 t_x#9#7 -0.006434490309964003 t_x#9#8 +0.5 t_x#10#1 +0.8528313109147517 t_x#10#2 +0.3602424649324781 t_x#10#3 +0.11222846045356856 t_x#10#4 -0.1907637127189328 t_x#10#5 -0.1950894204903371 t_x#10#6 -0.09432746509018654 t_x#10#7 -0.006434490309964003 t_x#10#8 -0.0019600863339176143 t_y#1#10 -0.09102685994169313 t_y#8#10 -0.006434490309964003 t_y#6#10 -0.49999999999999944 t_y#9#1 -0.5 t_y#8#1 -0.09102685994169316 t_y#10#9 +0.1907637127189328 t_y#10#6 -0.391743530588612 t_y#10#5 +0.48517769196454785 t_y#10#4 -0.705662621829504 t_y#10#3 -1.0 t_y#10#2 -0.09200239716305675 t_y#1#7 +0.006434490309964003 t_y#9#8 -0.50224058144722 t_y#9#7 -0.11222846045356856 t_y#9#4 -0.49999999999999967 t_y#9#2 -0.006434490309964003 t_y#8#9 +0.08286096003676854 t_y#8#7 -0.39174353058861194 t_y#8#6 +0.003971991042180558 t_y#8#5 -0.11222846045356856 t_y#8#4 +0.5000000000000002 t_y#8#2 -0.005326027693541696 t_y#7#9 -0.005326027693541596 t_y#7#8 -0.004433850465689539 t_y#7#7 -0.1950894204903371 t_y#7#6 -0.30888257055184337 t_y#7#4 -0.15444128527592169 t_y#7#3 -0.027636090821839425 t_y#6#8 -0.016802671124548856 t_y#6#3 -0.05052178849992572 t_y#5#9 -0.02188537775594896 t_y#5#8 -0.15444128527592169 t_y#5#4 -0.0019600863339176143 t_y#4#9 -0.044771075434035246 t_y#4#8 -0.02384546408986658 t_y#4#6 -0.04064813521441544 t_y#4#5 -0.061979281662153274 t_y#3#6 -0.0039201726678352285 t_y#2#9 -0.06700791694641071 t_y#2#7 +0.026359781731995265 t_y#2#6 -0.09085338103627727 t_y#2#5 <= -3.382498456713634
 newcut_64: -1.0 t_x#2#4 -1.0 t_x#3#3 -1.0 t_x#3#5 -1.0 t_x#4#4 +1.0 t_y#3#4 <= 0.0
 newcut_65: +1.0 t_x#4#6 -1.0 t_y#4#5 <= 0.0
 newcut_66: -0.004267780331076808 t_x#1#6 +0.016974401090175197 t_x#1#7 -0.0058040776214421715 t_x#2#4 -0.0017409642143769541 t_x#2#7 +0.005720310990095672 t_x#2#8 +0.9997495636794798 t_x#2#10 -0.012463093026730184 t_x#4#4 +0.008766998365255322 t_x#4#6 -0.9997495636794798 t_x#4#9 -0.01093974933915036 t_x#5#4 +0.008766998365255322 t_x#5#7 +0.9997495636794798 t_x#5#8 -0.8236332437807594 t_x#5#9 -0.8225779569404973 t_x#5#10 +0.41707405747427223 t_x#6#8 -0.0004110609950612229 t_x#6#10 -0.01093974933915036 t_x#7#2 -0.9715892947972287 t_x#7#6 +0.47942147482812736 t_x#7#8 +0.04687649776032207 t_x#8#1 -0.4228522278901431 t_x#8#2 +0.6875599643862282 t_x#8#4 +0.34565048243534646 t_x#9#1 -0.25065048675321405 t_x#9#2 -0.25065048675321405 t_x#9#3 +0.6875599643862282 t_x#9#4 -0.6041232181239903 t_x#9#6 +0.6875599643862282 t_x#9#7 +0.29877398467502436 t_x#10#1 +0.2518974869147023 t_x#10#2 +0.2518974869147023 t_x#10#3 +0.6875599643862282 t_x#10#4 +0.4795631008852492 t_x#10#7 +0.4795631008852492 t_x#10#8 -0.9997495636794798 t_y#1#10 -0.8463279558610304 t_y#10#1 -0.4795631008852493 t_y#9#10 -1.0 t_y#3#10 -0.09499999568213238 t_y#9#1 -0.5950539690270722 t_y#8#1 -0.4795631008852492 t_y#10#8 -0.959948323760621 t_y#10#7 -0.5950539690270722 t_y#10#4 -0.2518974869147023 t_y#10#3 -0.2518974869147023 t_y#10#2 -0.006034651751024843 t_y#1#8 -0.016974401090175197 t_y#1#6 -0.6875599643862282 t_y#9#4 +0.25065048675321405 t_y#9#2 -0.6875599643862282 t_y#8#7 -0.06563849603490216 t_y#8#5 -0.6875599643862282 t_y#8#4 -0.47942147482812736 t_y#7#9 -0.47942147482812736 t_y#7#8 -0.9997495636794798 t_y#6#8 -0.02187949867830072 t_y#6#3 -0.9997495636794798 t_y#5#8 -0.024926186053460368 t_y#5#6 +0.9997495636794798 t_y#4#9 -0.008766998365255322 t_y#4#7 -0.008240218518643247 t_y#3#5 -0.005720310990095672 t_y#2#8 -0.007746254465754538 t_y#2#7 <= -6.090830662732226
 newcut_67: +1.0 t_x#4#10 -1.0 t_y#5#10 <= 0.0
 newcut_68: +1.0 t_x#6#6 +1.0 t_x#6#7 +1.0 t_x#6#8 +1.0 t_x#7#5 +2.0 t_x#7#6 +2.0 t_x#7#7 +1.0 t_x#7#8 +1.0 t_x#8#5 +1.0 t_x#8#6 +1.0 t_x#8#7 -1.0 t_y#8#6 -1.0 t_y#7#8 -1.0 t_y#7#7 -1.0 t_y#7#6 -1.0 t_y#7#5 -1.0 t_y#6#7 <= -1.0
 newcut_69: +1.0 t_x#1#7 -1.0 t_x#2#9 -1.0 t_x#3#8 -1.0 t_y#1#8 -1.0 t_y#1#7 +1.0 t_y#2#8 <= -1.0
 newcut_70: +1.0 t_x#1#8 -1.0 t_y#1#9 <= 0.0
 newcut_71: +1.0 t_x#2#6 -1.0 t_y#2#6 <= 0.0
 newcut_72: +1.0 t_x#6#9 -1.0 t_y#6#9 <= 0.0
 newcut_73: +1.0 t_x#9#10 -1.0 t_y#10#10 <= 0.0
 newcut_74: -1.0 t_x#6#5 -1.0 t_x#7#4 -1.0 t_x#7#6 -1.0 t_y#8#5 +1.0 t_y#7#5 <= -1.0
 newcut_75: +1.0 t_x#6#4 +1.0 t_x#7#4 +1.0 t_x#7#5 -1.0 t_y#7#6 -1.0 t_y#7#4 -1.0 t_y#6#4 <= -1.0
 newcut_76: +1.0 t_x#7#1 -1.0 t_y#7#2 <= 0.0
 newcut_77: +1.0 t_x#9#3 +1.0 t_x#9#4 +1.0 t_x#10#3 +1.0 t_x#10#4 -1.0 t_y#10#4 -1.0 t_y#9#4 -1.0 t_y#9#3 <= -1.0
 newcut_78: +1.0 t_x#6#7 -1.0 t_y#6#7 <= 0.0
 newcut_79: -1.0 t_x#1#10 -1.0 t_x#2#9 -1.0 t_y#3#10 +1.0 t_y#2#10 <= -1.0
 newcut_80: +1.0 t_x#2#10 +1.0 t_x#3#10 -1.0 t_y#3#10 -1.0 t_y#2#10 <= -1.0
 newcut_81: -1.0 t_x#7#2 -1.0 t_x#8#3 +1.0 t_x#9#1 +1.0 t_x#9#2 +1.0 t_x#9#3 -1.0 t_x#9#4 +1.0 t_x#10#1 +2.0 t_x#10#2 +1.0 t_x#10#3 -1.0 t_x#10#5 -1.0 t_y#9#1 -1.0 t_y#8#1 +1.0 t_y#10#4 -2.0 t_y#10#3 -2.0 t_y#10#2 -1.0 t_y#9#2 +1.0 t_y#8#2 <= -4.0
 newcut_82: +1.0 t_x#8#5 -1.0 t_y#8#4 <= 0.0
 newcut_83: +1.0 t_x#8#1 +2.0 t_x#9#1 -1.0 t_x#9#3 -1.0 t_x#10#2 -1.0 t_x#10#3 -1.0 t_y#10#1 -2.0 t_y#9#1 -2.0 t_y#8#1 -1.0 t_y#10#4 +1.0 t_y#10#3 +1.0 t_y#10#2 -1.0 t_y#9#2 <= -5.0
 newcut_84: +1.0 t_x#1#9 -1.0 t_y#1#9 <= 0.0
 newcut_85: +1.0 t_x#2#6 -1.0 t_y#1#6 <= 0.0
 newcut_86: +1.0 t_x#9#2 -1.0 t_y#10#2 <= 0.0
 newcut_87: -1.0 t_x#6#8 -1.0 t_x#6#9 -1.0 t_x#7#7 -1.0 t_x#7#9 -1.0 t_x#10#6 +1.0 t_x#10#8 -1.0 t_y#8#10 -1.0 t_y#10#9 -1.0 t_y#10#8 -1.0 t_y#9#8 <= -4.0
 newcut_88: +1.0 t_x#7#8 +1.0 t_x#8#8 -1.0 t_y#8#8 -1.0 t_y#7#8 <= -1.0
 newcut_89: +1.0 t_x#1#2 -2.0 t_x#2#2 -1.0 t_x#2#3 -1.0 t_x#3#4 -1.0 t_x#4#3 -2.0 t_y#1#1 -2.0 t_y#1#3 -2.0 t_y#3#2 +2.0 t_y#2#2 <= -4.0
 newcut_90: -1.0 t_x#10#10 -1.0 t_x#6#8 -1.0 t_x#7#7 +1.0 t_x#7#10 +1.0 t_x#8#9 +1.0 t_x#8#10 -1.0 t_x#9#8 -1.0 t_x#10#6 -1.0 t_x#10#9 +1.0 t_y#10#10 -2.0 t_y#8#10 -1.0 t_y#6#10 -1.0 t_y#10#7 -1.0 t_y#8#9 <= -4.0
 newcut_91: -1.0 t_x#9#4 -1.0 t_x#10#3 +1.0 t_y#9#3 <= 1.0
 newcut_92: +1.0 t_x#7#3 +1.0 t_x#8#2 +1.0 t_x#8#3 +1.0 t_x#8#4 +1.0 t_x#9#3 -1.0 t_y#8#4 -1.0 t_y#8#3 -1.0 t_y#7#2 <= -0.0
 newcut_93: +1.0 t_x#1#1 +2.0 t_x#1#2 -3.0 t_x#1#3 -2.0 t_x#1#4 +5.0 t_x#2#1 +1.0 t_x#2#3 +2.0 t_x#3#2 -1.0 t_x#4#2 -4.0 t_y#1#1 -2.0 t_y#2#1 +2.0 t_y#1#3 +2.0 t_y#1#2 -2.0 t_y#3#3 -4.0 t_y#2#2 <= -5.0
 newcut_94: -1.0 t_x#3#1 +1.0 t_x#5#2 -1.0 t_x#7#1 +1.0 t_y#6#1 -1.0 t_y#5#1 +1.0 t_y#4#1 -1.0 t_y#5#2 <= -1.0
 newcut_95: +1.0 t_x#3#1 +1.0 t_x#3#2 +1.0 t_x#3#3 +1.0 t_x#4#1 +2.0 t_x#4#2 +1.0 t_x#4#3 +1.0 t_x#5#1 +1.0 t_x#5#2 +1.0 t_x#5#3 -1.0 t_y#4#1 -1.0 t_y#5#2 -1.0 t_y#4#3 -1.0 t_y#4#2 -1.0 t_y#3#2 <= -1.0
 newcut_96: +1.0 t_x#9#7 -1.0 t_y#9#6 <= 0.0
 newcut_97: +1.0 t_x#2#5 -1.0 t_y#1#5 <= 0.0
 newcut_98: +1.0 t_x#9#2 -1.0 t_y#9#1 <= 0.0
 newcut_99: +1.0 t_x#5#7 -1.0 t_y#5#7 <= 0.0
 newcut_100: +1.0 t_x#10#10 +1.0 t_x#9#10 -1.0 t_y#10#10 -1.0 t_y#9#10 <= -1.0
 newcut_101: +1.0 t_x#6#2 -1.0 t_y#5#2 <= 0.0
 newcut_102: -1.0 t_x#5#1 +1.0 t_y#6#1 <= 1.0
 newcut_103: -1.0 t_x#1#10 -1.0 t_x#2#9 +1.0 t_x#3#9 -1.0 t_x#4#9 +1.0 t_x#4#10 -1.0 t_y#5#10 -2.0 t_y#3#10 +1.0 t_y#2#10 -1.0 t_y#4#8 <= -3.0
 newcut_104: +36.0 t_x#10#10 +133.0 t_x#1#2 +16.0 t_x#1#7 -5.0 t_x#1#10 -110.0 t_x#2#4 +36.0 t_x#2#5 -16.0 t_x#2#9 -84.0 t_x#3#1 +4.0 t_x#3#5 +4.0 t_x#3#6 -16.0 t_x#3#8 +2.0 t_x#3#9 -42.0 t_x#4#3 -14.0 t_x#4#4 +8.0 t_x#4#6 -1.0 t_x#4#7 -7.0 t_x#4#9 -14.0 t_x#5#4 +8.0 t_x#5#7 -5.0 t_x#5#8 -13.0 t_x#5#10 -12.0 t_x#6#5 -13.0 t_x#6#10 -12.0 t_x#7#4 +24.0 t_x#7#8 -24.0 t_x#8#8 -12.0 t_x#8#10 -12.0 t_x#9#6 -24.0 t_x#9#8 +36.0 t_x#10#8 +36.0 t_x#10#9 -36.0 t_y#10#10 -189.0 t_y#1#1 -3.0 t_y#3#10 +133.0 t_y#2#1 -60.0 t_y#10#9 -12.0 t_y#10#8 -48.0 t_y#10#7 -16.0 t_y#1#8 -16.0 t_y#1#7 -36.0 t_y#1#5 -133.0 t_y#1#3 +24.0 t_y#9#8 -24.0 t_y#7#9 -24.0 t_y#7#8 -32.0 t_y#5#6 -2.0 t_y#4#9 -8.0 t_y#4#7 -28.0 t_y#3#5 -133.0 t_y#3#2 +16.0 t_y#2#8 -16.0 t_y#2#7 -4.0 t_y#2#6 -4.0 t_y#2#5 <= -525.0
 newcut_105: +1.0 t_x#9#4 +1.0 t_x#10#5 -1.0 t_y#10#4 -1.0 t_y#9#5 <= -1.0
 newcut_106: +1.0 t_x#2#9 +1.0 t_x#3#8 +1.0 t_x#3#9 +1.0 t_x#3#10 +1.0 t_x#4#8 +1.0 t_x#4#9 -1.0 t_y#2#10 -1.0 t_y#4#9 -1.0 t_y#4#8 -1.0 t_y#3#9 <= -1.0
 newcut_107: -1.0 t_x#7#2 -1.0 t_x#8#1 -1.0 t_x#8#2 -1.0 t_x#8#3 +1.0 t_y#8#2 <= 0.0
 newcut_108: +1.0 t_x#6#1 -1.0 t_y#6#2 <= 0.0
 newcut_109: -1.0 t_x#6#6 -1.0 t_x#6#7 -1.0 t_x#6#8 -1.0 t_x#7#7 +1.0 t_y#6#7 <= 0.0
 newcut_110: +1.0 t_x#2#3 -1.0 t_y#2#4 <= 0.0
 newcut_111: -1.0 t_x#10#3 -1.0 t_x#10#4 +1.0 t_y#10#3 <= 1.0
 newcut_112: +8.0 t_x#2#5 -4.0 t_x#2#7 +4.0 t_x#3#5 +4.0 t_x#3#6 +8.0 t_x#3#9 +4.0 t_x#3#10 +8.0 t_x#4#6 +8.0 t_x#5#7 -5.0 t_x#5#8 -8.0 t_x#5#10 -21.0 t_x#6#5 +4.0 t_x#6#6 +4.0 t_x#6#7 -12.0 t_x#6#8 +7.0 t_x#6#9 +6.0 t_x#6#10 -21.0 t_x#7#4 +2.0 t_x#7#6 -10.0 t_x#7#7 -19.0 t_x#7#8 -7.0 t_x#7#9 +21.0 t_x#7#10 +30.0 t_x#8#7 -21.0 t_x#8#8 +21.0 t_x#8#9 +21.0 t_x#8#10 -21.0 t_x#9#5 +21.0 t_x#9#9 -42.0 t_x#10#6 -21.0 t_x#10#7 -21.0 t_x#10#9 -42.0 t_y#8#10 -42.0 t_y#6#10 -4.0 t_y#2#10 -21.0 t_y#10#9 +21.0 t_y#10#8 -12.0 t_y#1#8 -8.0 t_y#1#5 -21.0 t_y#9#8 -56.0 t_y#9#7 +21.0 t_y#9#6 -42.0 t_y#8#9 +21.0 t_y#8#7 -21.0 t_y#8#6 -21.0 t_y#8#5 +21.0 t_y#7#9 +21.0 t_y#7#8 -18.0 t_y#7#7 -21.0 t_y#7#6 +21.0 t_y#7#5 -28.0 t_y#6#9 -4.0 t_y#6#7 -8.0 t_y#5#6 -4.0 t_y#4#8 -8.0 t_y#4#7 -8.0 t_y#3#9 -4.0 t_y#3#6 -4.0 t_y#2#6 -4.0 t_y#2#5 <= -207.0
 newcut_113: +1.0 t_x#6#2 -1.0 t_y#6#2 <= 0.0
 newcut_114: -1.0 t_x#8#2 -1.0 t_x#10#1 -1.0 t_x#10#3 -1.0 t_y#10#1 -1.0 t_y#7#1 <= -2.0
 newcut_115: +1.0 t_x#1#1 -1.0 t_y#1#2 <= 0.0
 newcut_116: +1.0 t_x#8#3 -1.0 t_y#7#3 <= 0.0
 newcut_117: +1.0 t_x#3#1 -1.0 t_y#3#1 <= 0.0
 newcut_118: -1.0 t_x#5#9 -1.0 t_x#5#10 -1.0 t_x#6#9 +1.0 t_y#5#9 -1.0 t_y#4#8 <= -1.0
 newcut_119: +1.0 t_x#3#7 -1.0 t_y#3#7 <= 0.0
 newcut_120: +1.0 t_x#4#9 -1.0 t_y#4#10 <= 0.0
 newcut_121: +1.0 t_x#1#7 +1.0 t_x#1#8 +1.0 t_x#1#9 -1.0 t_y#1#10 -1.0 t_y#1#8 -1.0 t_y#1#7 <= -1.0
 newcut_122: +1.0 t_x#5#7 -1.0 t_y#5#8 <= 0.0
 newcut_123: +1.0 t_x#2#3 -1.0 t_y#1#3 <= 0.0
 newcut_124: -2.0 t_x#4#3 -2.0 t_x#5#2 -2.0 t_x#5#4 -1.0 t_x#6#1 -2.0 t_x#7#2 +2.0 t_x#8#1 -1.0 t_x#8#2 +2.0 t_x#9#1 +2.0 t_x#9#2 -2.0 t_y#9#1 -4.0 t_y#8#1 -2.0 t_y#10#2 +2.0 t_y#7#2 -2.0 t_y#6#3 +2.0 t_y#5#3 <= -6.0
 newcut_125: +1.0 t_x#10#4 +1.0 t_x#10#6 -1.0 t_y#10#5 <= 0.0
 newcut_126: +1.0 t_x#3#4 +1.0 t_x#3#6 +2.0 t_x#4#5 +1.0 t_x#5#4 +1.0 t_x#5#6 -1.0 t_y#5#5 -1.0 t_y#4#6 -1.0 t_y#4#4 -1.0 t_y#3#5 <= -1.0
 newcut_127: +1.0 t_x#8#10 -1.0 t_y#7#10 <= 0.0
 newcut_128: +1.0 t_x#4#1 -1.0 t_y#4#2 <= 0.0
 newcut_129: +11.0 t_x#1#7 +11.0 t_x#1#8 +11.0 t_x#1#9 -11.0 t_x#2#9 +8.0 t_x#3#4 +8.0 t_x#3#6 +16.0 t_x#4#5 +11.0 t_x#4#10 +8.0 t_x#5#4 +3.0 t_x#5#6 +6.0 t_x#5#7 +4.0 t_x#6#7 +1.0 t_x#6#8 -3.0 t_x#6#9 +4.0 t_x#7#5 +7.0 t_x#7#6 +5.0 t_x#7#7 +10.0 t_x#7#8 -5.0 t_x#7#9 -3.0 t_x#7#10 +4.0 t_x#8#5 +4.0 t_x#8#6 +4.0 t_x#8#7 +6.0 t_x#8#8 -3.0 t_x#10#6 +3.0 t_x#10#7 +6.0 t_x#10#8 -11.0 t_y#1#10 -5.0 t_y#9#10 -3.0 t_y#8#10 -11.0 t_y#5#10 -19.0 t_y#3#10 +11.0 t_y#2#10 -3.0 t_y#10#9 -6.0 t_y#10#8 -9.0 t_y#10#7 -11.0 t_y#1#9 -11.0 t_y#1#8 -11.0 t_y#1#7 -3.0 t_y#9#8 -6.0 t_y#8#8 -4.0 t_y#8#6 -10.0 t_y#7#8 -4.0 t_y#7#7 -4.0 t_y#7#6 -4.0 t_y#7#5 -4.0 t_y#6#8 -4.0 t_y#6#7 -6.0 t_y#5#8 -8.0 t_y#5#5 -11.0 t_y#4#8 -8.0 t_y#4#6 -8.0 t_y#4#4 -8.0 t_y#3#5 +11.0 t_y#2#9 -11.0 t_y#2#7 <= -100.0
 newcut_130: +1.0 t_x#7#2 +1.0 t_x#7#4 +2.0 t_x#8#3 +1.0 t_x#8#4 +1.0 t_x#9#4 -1.0 t_y#10#1 +1.0 t_y#9#1 -1.0 t_y#8#1 -1.0 t_y#9#3 -1.0 t_y#8#4 -1.0 t_y#8#2 -1.0 t_y#7#3 <= -2.0
 newcut_131: +1.0 t_x#10#2 -1.0 t_y#10#2 <= 0.0
 newcut_132: +1.0 t_x#1#3 -1.0 t_y#1#4 <= 0.0
 newcut_133: +1.0 t_x#6#1 +1.0 t_x#6#2 +2.0 t_x#7#1 +1.0 t_x#7#2 +1.0 t_x#8#1 +1.0 t_x#8#2 -1.0 t_y#8#1 -1.0 t_y#7#1 -1.0 t_y#6#1 -1.0 t_y#7#2 <= -1.0
 newcut_134: +1.0 t_x#3#1 +1.0 t_x#3#2 +2.0 t_x#4#1 +1.0 t_x#4#2 +1.0 t_x#5#1 +1.0 t_x#5#2 -1.0 t_y#5#1 -1.0 t_y#4#1 -1.0 t_y#3#1 -1.0 t_y#4#2 <= -1.0
 newcut_135: +1.0 t_x#2#9 -1.0 t_y#1#9 <= 0.0
 newcut_136: +1.0 t_x#10#10 +1.0 t_x#7#9 +1.0 t_x#7#10 +1.0 t_x#8#5 +1.0 t_x#8#7 +1.0 t_x#8#8 +1.0 t_x#8#9 +2.0 t_x#8#10 +1.0 t_x#9#4 +1.0 t_x#9#5 +2.0 t_x#9#6 +1.0 t_x#9#7 +1.0 t_x#9#8 +2.0 t_x#9#9 +1.0 t_x#9#10 +1.0 t_x#10#4 +2.0 t_x#10#5 +1.0 t_x#10#6 +1.0 t_x#10#7 +1.0 t_x#10#8 -1.0 t_y#9#10 -1.0 t_y#8#10 -1.0 t_y#7#10 -1.0 t_y#10#9 -1.0 t_y#10#6 -1.0 t_y#10#5 -1.0 t_y#10#4 -1.0 t_y#9#8 -1.0 t_y#9#7 -1.0 t_y#9#5 -1.0 t_y#8#9 -1.0 t_y#8#6 <= -4.0
 newcut_137: -1.0 t_x#4#4 -1.0 t_x#4#5 -1.0 t_y#6#5 +1.0 t_y#4#5 -1.0 t_y#3#6 <= -1.0
 newcut_138: +1.0 t_x#5#3 -1.0 t_y#5#4 <= 0.0
 newcut_139: +1.0 t_x#5#3 +1.0 t_x#6#1 +2.0 t_x#6#2 +1.0 t_x#6#3 +1.0 t_x#6#4 +1.0 t_x#7#1 +1.0 t_x#7#2 +1.0 t_x#7#3 -1.0 t_y#6#1 -1.0 t_y#7#2 -1.0 t_y#6#3 -1.0 t_y#6#2 -1.0 t_y#5#4 <= -1.0
 newcut_140: +1.0 t_x#7#8 +2.0 t_x#7#9 +1.0 t_x#7#10 +1.0 t_x#8#8 +1.0 t_x#8#9 +1.0 t_x#8#10 -1.0 t_y#7#10 -1.0 t_y#8#9 -1.0 t_y#7#9 -1.0 t_y#7#8 <= -1.0
 newcut_141: +1.0 t_x#7#9 -1.0 t_y#6#9 <= 0.0
 newcut_142: +1.0 t_x#7#2 +1.0 t_x#7#3 +1.0 t_x#7#4 +1.0 t_x#8#2 +2.0 t_x#8#3 +1.0 t_x#8#4 +1.0 t_x#9#1 +1.0 t_x#9#3 +1.0 t_x#9#4 +1.0 t_x#10#1 +1.0 t_x#10#2 +1.0 t_x#10#3 +1.0 t_x#10#4 -2.0 t_y#10#1 -1.0 t_y#10#4 -1.0 t_y#10#3 -1.0 t_y#8#4 -1.0 t_y#8#3 -1.0 t_y#8#2 -1.0 t_y#7#3 <= -3.0
 newcut_143: +1.0 t_x#9#2 +1.0 t_y#10#1 -1.0 t_y#9#1 -1.0 t_y#10#2 <= 0.0
 newcut_144: +1.0 t_x#8#6 +1.0 t_x#8#7 +2.0 t_x#9#6 +1.0 t_x#9#7 +1.0 t_x#10#6 +1.0 t_x#10#7 -1.0 t_y#10#6 -1.0 t_y#9#7 -1.0 t_y#9#6 -1.0 t_y#8#6 <= -1.0
 newcut_145: +1.0 t_x#1#1 +1.0 t_x#1#2 +2.0 t_x#1#3 +1.0 t_x#1#4 +1.0 t_x#2#1 +2.0 t_x#2#2 +1.0 t_x#2#3 +1.0 t_x#2#4 +2.0 t_x#3#1 +1.0 t_x#3#2 +1.0 t_x#3#3 +1.0 t_x#4#1 +1.0 t_x#4#2 -1.0 t_y#4#1 -1.0 t_y#3#1 -1.0 t_y#2#1 -1.0 t_y#1#4 -1.0 t_y#1#3 -1.0 t_y#1#2 -1.0 t_y#3#2 -1.0 t_y#2#3 <= -1.0
 newcut_146: +1.0 t_x#1#7 -1.0 t_x#1#10 -1.0 t_x#2#9 -1.0 t_x#3#8 +1.0 t_y#1#9 -1.0 t_y#1#8 -1.0 t_y#1#7 +1.0 t_y#2#8 <= -1.0
 newcut_147: +1.0 t_x#10#5 +1.0 t_x#10#6 -1.0 t_y#10#5 <= 0.0
 newcut_148: -1.0 t_x#9#5 -1.0 t_x#10#4 +1.0 t_y#10#5 <= 1.0
 newcut_149: -1.0 t_x#10#7 +1.0 t_y#10#6 <= 1.0
 newcut_150: +1.0 t_x#4#3 -1.0 t_y#5#3 <= 0.0
 newcut_151: +1.0 t_x#9#1 +1.0 t_x#9#2 +1.0 t_x#9#3 +1.0 t_x#10#1 +2.0 t_x#10#2 +1.0 t_x#10#3 -1.0 t_y#10#1 -1.0 t_y#10#3 -1.0 t_y#10#2 -1.0 t_y#9#2 <= -2.0
 newcut_152: +1.0 t_x#5#1 +1.0 t_x#6#1 +1.0 t_x#6#2 +1.0 t_x#7#1 +1.0 t_x#7#2 -1.0 t_y#7#1 -1.0 t_y#6#1 -1.0 t_y#6#2 <= -0.0
 newcut_153: +1.0 t_x#6#4 +1.0 t_x#7#3 +1.0 t_x#7#4 +1.0 t_x#8#3 +2.0 t_x#8#4 +1.0 t_x#9#3 +1.0 t_x#9#4 -1.0 t_y#9#4 -1.0 t_y#8#4 -1.0 t_y#8#3 -1.0 t_y#7#4 -1.0 t_y#6#4 <= -1.0
 newcut_154: +1.0 t_x#3#9 +1.0 t_x#3#10 +1.0 t_x#4#9 +1.0 t_x#4#10 -1.0 t_y#4#10 -1.0 t_y#3#10 -1.0 t_y#4#9 <= -1.0
 newcut_155: +2.0 t_x#1#7 +1.0 t_x#1#8 +1.0 t_x#1#9 +1.0 t_x#2#6 +1.0 t_x#2#7 +2.0 t_x#2#8 +1.0 t_x#2#10 +1.0 t_x#3#7 +1.0 t_x#3#9 -1.0 t_y#1#10 -1.0 t_y#1#8 -1.0 t_y#1#7 -1.0 t_y#1#6 -1.0 t_y#3#8 -1.0 t_y#2#9 -1.0 t_y#2#7 <= -2.0
 newcut_156: -1.0 t_x#3#1 -1.0 t_x#4#1 -1.0 t_x#4#2 +1.0 t_y#4#1 <= 0.0
 newcut_157: +1.0 t_x#6#7 -1.0 t_y#6#6 <= 0.0
 newcut_158: +1.0 t_x#8#6 -1.0 t_y#7#6 <= 0.0
 newcut_159: +1.0 t_x#7#10 -1.0 t_y#6#10 <= 0.0
 newcut_160: +1.0 t_x#7#1 +1.0 t_x#8#1 -1.0 t_y#8#1 -1.0 t_y#7#1 <= -1.0
 newcut_161: +1.0 t_x#1#1 +1.0 t_x#1#2 +1.0 t_x#2#1 +1.0 t_x#2#2 +1.0 t_x#2#3 +1.0 t_x#3#2 +1.0 t_x#3#4 +1.0 t_x#4#3 -1.0 t_y#1#1 -1.0 t_y#1#2 -1.0 t_y#4#4 -1.0 t_y#3#3 -1.0 t_y#2#2 <= -1.0
 newcut_162: +1.0 t_x#8#1 +1.0 t_x#8#2 +1.0 t_x#8#3 +1.0 t_x#9#1 +2.0 t_x#9#2 +1.0 t_x#9#3 +1.0 t_x#10#1 +1.0 t_x#10#2 +1.0 t_x#10#3 -1.0 t_y#9#1 -1.0 t_y#10#2 -1.0 t_y#9#3 -1.0 t_y#9#2 -1.0 t_y#8#2 <= -1.0
 newcut_163: +1.0 t_x#1#8 +1.0 t_x#1#9 +1.0 t_x#2#8 +1.0 t_x#2#9 +1.0 t_x#2#10 +1.0 t_x#3#8 +1.0 t_x#3#9 +1.0 t_x#3#10 +1.0 t_x#4#8 +2.0 t_x#4#9 +1.0 t_x#4#10 +1.0 t_x#5#8 +1.0 t_x#5#9 +1.0 t_x#5#10 -1.0 t_y#4#10 -1.0 t_y#3#10 -1.0 t_y#1#9 -1.0 t_y#5#9 -1.0 t_y#4#9 -1.0 t_y#4#8 -1.0 t_y#2#9 -1.0 t_y#2#8 <= -2.0
 newcut_164: +1.0 t_x#4#2 -1.0 t_y#4#2 <= 0.0
 newcut_165: +1.0 t_x#9#6 +1.0 t_x#10#5 +1.0 t_x#10#6 -1.0 t_y#10#6 -1.0 t_y#9#5 <= -0.0
 newcut_166: -1.0 t_x#1#10 -1.0 t_x#2#9 +1.0 t_x#3#9 -1.0 t_x#4#9 +1.0 t_x#4#10 -1.0 t_x#5#10 -1.0 t_y#5#10 +1.0 t_y#4#10 -2.0 t_y#3#10 +1.0 t_y#2#10 -1.0 t_y#4#8 <= -3.0
 newcut_167: +1.0 t_x#5#5 -1.0 t_y#5#5 <= 0.0
 newcut_168: +1.0 t_x#4#5 -1.0 t_y#5#5 <= 0.0
 newcut_169: +1.0 t_x#1#1 +2.0 t_x#1#2 +1.0 t_x#1#3 +1.0 t_x#2#1 +1.0 t_x#2#2 +1.0 t_x#2#3 -1.0 t_y#1#1 -1.0 t_y#1#3 -1.0 t_y#1#2 -1.0 t_y#2#2 <= -1.0
 newcut_170: +1.0 t_x#1#9 +1.0 t_x#1#10 +1.0 t_x#2#8 +1.0 t_x#2#9 +2.0 t_x#2#10 +1.0 t_x#3#9 +1.0 t_x#3#10 -1.0 t_y#1#10 -1.0 t_y#2#10 -1.0 t_y#1#8 -1.0 t_y#1#7 -1.0 t_y#3#9 -1.0 t_y#2#9 <= -1.0
 newcut_171: -1.0 t_x#7#2 -1.0 t_x#7#4 -1.0 t_x#8#3 +1.0 t_y#7#3 -1.0 t_y#6#3 <= -1.0
 newcut_172: +1.0 t_x#6#1 +1.0 t_x#6#2 +1.0 t_x#6#3 +1.0 t_x#7#1 +1.0 t_x#7#2 +1.0 t_x#7#3 +1.0 t_x#8#1 +1.0 t_x#8#2 +1.0 t_x#8#3 +1.0 t_x#8#4 +1.0 t_x#9#1 +1.0 t_x#9#2 +1.0 t_x#9#3 +1.0 t_x#9#4 +1.0 t_x#10#1 +1.0 t_x#10#2 +1.0 t_x#10#3 -1.0 t_y#10#1 -1.0 t_y#8#1 -1.0 t_y#7#1 -1.0 t_y#10#2 -1.0 t_y#9#3 -1.0 t_y#8#4 -1.0 t_y#8#3 -1.0 t_y#6#3 -1.0 t_y#6#2 <= -2.0
 newcut_173: +1.0 t_x#6#9 -1.0 t_y#5#9 <= 0.0
 newcut_174: +1.0 t_x#3#7 +1.0 t_x#3#8 +2.0 t_x#4#7 +1.0 t_x#4#8 +1.0 t_x#5#7 +1.0 t_x#5#8 -1.0 t_y#5#7 -1.0 t_y#4#8 -1.0 t_y#4#7 -1.0 t_y#3#7 <= -1.0
 newcut_175: +1.0 t_x#1#1 +1.0 t_x#1#2 +2.0 t_x#2#1 +1.0 t_x#2#2 +1.0 t_x#3#1 +1.0 t_x#3#2 -1.0 t_y#1#1 -1.0 t_y#3#1 -1.0 t_y#2#1 -1.0 t_y#2#2 <= -1.0
 newcut_176: +1.0 t_x#5#1 +1.0 t_x#5#2 +2.0 t_x#6#1 +1.0 t_x#6#2 +1.0 t_x#7#1 +1.0 t_x#7#2 -1.0 t_y#7#1 -1.0 t_y#6#1 -1.0 t_y#5#1 -1.0 t_y#6#2 <= -1.0
 newcut_177: +1.0 t_x#3#5 +1.0 t_x#4#5 +1.0 t_x#4#6 +1.0 t_x#5#5 -1.0 t_y#5#5 -1.0 t_y#4#5 -1.0 t_y#3#6 <= -1.0
 newcut_178: +1.0 t_x#6#4 -1.0 t_y#6#4 <= 0.0
 newcut_179: +1.0 t_x#6#4 -1.0 t_y#6#5 <= 0.0
 newcut_180: +1.0 t_x#9#2 -1.0 t_y#9#3 <= 0.0
 newcut_181: +1.0 t_x#2#8 +1.0 t_x#2#9 +1.0 t_x#2#10 +1.0 t_x#3#8 +2.0 t_x#3#9 +1.0 t_x#3#10 +1.0 t_x#4#8 +1.0 t_x#4#9 +1.0 t_x#4#10 -1.0 t_y#3#10 -1.0 t_y#4#9 -1.0 t_y#3#9 -1.0 t_y#3#8 -1.0 t_y#2#9 <= -1.0
 newcut_182: +1.0 t_x#1#5 -1.0 t_y#1#6 <= 0.0
Bounds
 0 <= t_x#10#10 <= 1
 0 <= t_x#1#1 <= 1
 0 <= t_x#1#2 <= 1
 0 <= t_x#1#3 <= 1
 0 <= t_x#1#4 <= 1
 0 <= t_x#1#5 <= 1
 0 <= t_x#1#6 <= 1
 0 <= t_x#1#7 <= 1
 0 <= t_x#1#8 <= 1
 0 <= t_x#1#9 <= 1
 0 <= t_x#1#10 <= 1
 0 <= t_x#2#1 <= 1
 0 <= t_x#2#2 <= 1
 0 <= t_x#2#3 <= 1
 0 <= t_x#2#4 <= 1
 0 <= t_x#2#5 <= 1
 0 <= t_x#2#6 <= 1
 0 <= t_x#2#7 <= 1
 0 <= t_x#2#8 <= 1
 0 <= t_x#2#9 <= 1
 0 <= t_x#2#10 <= 1
 0 <= t_x#3#1 <= 1
 0 <= t_x#3#2 <= 1
 0 <= t_x#3#3 <= 1
 0 <= t_x#3#4 <= 1
 0 <= t_x#3#5 <= 1
 0 <= t_x#3#6 <= 1
 0 <= t_x#3#7 <= 1
 0 <= t_x#3#8 <= 1
 0 <= t_x#3#9 <= 1
 0 <= t_x#3#10 <= 1
 0 <= t_x#4#1 <= 1
 0 <= t_x#4#2 <= 1
 0 <= t_x#4#3 <= 1
 0 <= t_x#4#4 <= 1
 0 <= t_x#4#5 <= 1
 0 <= t_x#4#6 <= 1
 0 <= t_x#4#7 <= 1
 0 <= t_x#4#8 <= 1
 0 <= t_x#4#9 <= 1
 0 <= t_x#4#10 <= 1
 0 <= t_x#5#1 <= 1
 0 <= t_x#5#2 <= 1
 0 <= t_x#5#3 <= 1
 0 <= t_x#5#4 <= 1
 0 <= t_x#5#5 <= 1
 0 <= t_x#5#6 <= 1
 0 <= t_x#5#7 <= 1
 0 <= t_x#5#8 <= 1
 0 <= t_x#5#9 <= 1
 0 <= t_x#5#10 <= 1
 0 <= t_x#6#1 <= 1
 0 <= t_x#6#2 <= 1
 0 <= t_x#6#3 <= 1
 0 <= t_x#6#4 <= 1
 0 <= t_x#6#5 <= 1
 0 <= t_x#6#6 <= 1
 0 <= t_x#6#7 <= 1
 0 <= t_x#6#8 <= 1
 0 <= t_x#6#9 <= 1
 0 <= t_x#6#10 <= 1
 0 <= t_x#7#1 <= 1
 0 <= t_x#7#2 <= 1
 0 <= t_x#7#3 <= 1
 0 <= t_x#7#4 <= 1
 0 <= t_x#7#5 <= 1
 0 <= t_x#7#6 <= 1
 0 <= t_x#7#7 <= 1
 0 <= t_x#7#8 <= 1
 0 <= t_x#7#9 <= 1
 0 <= t_x#7#10 <= 1
 0 <= t_x#8#1 <= 1
 0 <= t_x#8#2 <= 1
 0 <= t_x#8#3 <= 1
 0 <= t_x#8#4 <= 1
 0 <= t_x#8#5 <= 1
 0 <= t_x#8#6 <= 1
 0 <= t_x#8#7 <= 1
 0 <= t_x#8#8 <= 1
 0 <= t_x#8#9 <= 1
 0 <= t_x#8#10 <= 1
 0 <= t_x#9#1 <= 1
 0 <= t_x#9#2 <= 1
 0 <= t_x#9#3 <= 1
 0 <= t_x#9#4 <= 1
 0 <= t_x#9#5 <= 1
 0 <= t_x#9#6 <= 1
 0 <= t_x#9#7 <= 1
 0 <= t_x#9#8 <= 1
 0 <= t_x#9#9 <= 1
 0 <= t_x#9#10 <= 1
 0 <= t_x#10#1 <= 1
 0 <= t_x#10#2 <= 1
 0 <= t_x#10#3 <= 1
 0 <= t_x#10#4 <= 1
 0 <= t_x#10#5 <= 1
 0 <= t_x#10#6 <= 1
 0 <= t_x#10#7 <= 1
 0 <= t_x#10#8 <= 1
 0 <= t_x#10#9 <= 1
 0 <= t_y#1#10 <= 1
 1 <= t_y#10#1 <= 2
 1 <= t_y#1#1 <= 2
 1 <= t_y#9#10 <= 2
 1 <= t_y#8#10 <= 2
 0 <= t_y#7#10 <= 2
 0 <= t_y#6#10 <= 2
 0 <= t_y#5#10 <= 2
 0 <= t_y#4#10 <= 2
 1 <= t_y#3#10 <= 2
 0 <= t_y#2#10 <= 2
 0 <= t_y#9#1 <= 2
 1 <= t_y#8#1 <= 2
 0 <= t_y#7#1 <= 2
 0 <= t_y#6#1 <= 2
 1 <= t_y#5#1 <= 2
 0 <= t_y#4#1 <= 2
 0 <= t_y#3#1 <= 2
 0 <= t_y#2#1 <= 2
 1 <= t_y#10#9 <= 2
 0 <= t_y#10#8 <= 2
 1 <= t_y#10#7 <= 2
 0 <= t_y#10#6 <= 2
 1 <= t_y#10#5 <= 2
 1 <= t_y#10#4 <= 2
 1 <= t_y#10#3 <= 2
 0 <= t_y#10#2 <= 2
 0 <= t_y#1#9 <= 2
 1 <= t_y#1#8 <= 2
 0 <= t_y#1#7 <= 2
 0 <= t_y#1#6 <= 2
 0 <= t_y#1#5 <= 2
 0 <= t_y#1#4 <= 2
 0 <= t_y#1#3 <= 2
 0 <= t_y#1#2 <= 2
 0 <= t_y#9#9 <= 2
 1 <= t_y#9#8 <= 3
 1 <= t_y#9#7 <= 3
 0 <= t_y#9#6 <= 2
 0 <= t_y#9#5 <= 2
 0 <= t_y#9#4 <= 2
 0 <= t_y#9#3 <= 2
 1 <= t_y#9#2 <= 3
 0 <= t_y#8#9 <= 2
 1 <= t_y#8#8 <= 3
 0 <= t_y#8#7 <= 2
 0 <= t_y#8#6 <= 2
 1 <= t_y#8#5 <= 3
 0 <= t_y#8#4 <= 2
 0 <= t_y#8#3 <= 2
 0 <= t_y#8#2 <= 2
 1 <= t_y#7#9 <= 3
 0 <= t_y#7#8 <= 2
 1 <= t_y#7#7 <= 3
 0 <= t_y#7#6 <= 2
 0 <= t_y#7#5 <= 2
 1 <= t_y#7#4 <= 3
 0 <= t_y#7#3 <= 2
 0 <= t_y#7#2 <= 2
 0 <= t_y#6#9 <= 2
 1 <= t_y#6#8 <= 3
 0 <= t_y#6#7 <= 2
 0 <= t_y#6#6 <= 2
 0 <= t_y#6#5 <= 2
 0 <= t_y#6#4 <= 2
 1 <= t_y#6#3 <= 3
 0 <= t_y#6#2 <= 2
 0 <= t_y#5#9 <= 2
 0 <= t_y#5#8 <= 2
 0 <= t_y#5#7 <= 2
 1 <= t_y#5#6 <= 3
 0 <= t_y#5#5 <= 2
 0 <= t_y#5#4 <= 2
 0 <= t_y#5#3 <= 2
 0 <= t_y#5#2 <= 2
 0 <= t_y#4#9 <= 2
 1 <= t_y#4#8 <= 3
 0 <= t_y#4#7 <= 2
 0 <= t_y#4#6 <= 2
 0 <= t_y#4#5 <= 2
 0 <= t_y#4#4 <= 2
 0 <= t_y#4#3 <= 2
 0 <= t_y#4#2 <= 2
 0 <= t_y#3#9 <= 2
 0 <= t_y#3#8 <= 2
 0 <= t_y#3#7 <= 2
 1 <= t_y#3#6 <= 3
 1 <= t_y#3#5 <= 3
 0 <= t_y#3#4 <= 2
 0 <= t_y#3#3 <= 2
 1 <= t_y#3#2 <= 3
 0 <= t_y#2#9 <= 2
 0 <= t_y#2#8 <= 2
 1 <= t_y#2#7 <= 3
 0 <= t_y#2#6 <= 2
 0 <= t_y#2#5 <= 2
 0 <= t_y#2#4 <= 2
 0 <= t_y#2#3 <= 2
 0 <= t_y#2#2 <= 2
 0 <= t_y#10#10 <= 1
Binaries
 t_x#10#10 t_x#1#1 t_x#1#2 t_x#1#3 t_x#1#4 t_x#1#5 t_x#1#6 t_x#1#7 t_x#1#8 t_x#1#9 t_x#1#10 t_x#2#1 t_x#2#2
 t_x#2#3 t_x#2#4 t_x#2#5 t_x#2#6 t_x#2#7 t_x#2#8 t_x#2#9 t_x#2#10 t_x#3#1 t_x#3#2 t_x#3#3 t_x#3#4 t_x#3#5
 t_x#3#6 t_x#3#7 t_x#3#8 t_x#3#9 t_x#3#10 t_x#4#1 t_x#4#2 t_x#4#3 t_x#4#4 t_x#4#5 t_x#4#6 t_x#4#7 t_x#4#8
 t_x#4#9 t_x#4#10 t_x#5#1 t_x#5#2 t_x#5#3 t_x#5#4 t_x#5#5 t_x#5#6 t_x#5#7 t_x#5#8 t_x#5#9 t_x#5#10 t_x#6#1
 t_x#6#2 t_x#6#3 t_x#6#4 t_x#6#5 t_x#6#6 t_x#6#7 t_x#6#8 t_x#6#9 t_x#6#10 t_x#7#1 t_x#7#2 t_x#7#3 t_x#7#4
 t_x#7#5 t_x#7#6 t_x#7#7 t_x#7#8 t_x#7#9 t_x#7#10 t_x#8#1 t_x#8#2 t_x#8#3 t_x#8#4 t_x#8#5 t_x#8#6 t_x#8#7
 t_x#8#8 t_x#8#9 t_x#8#10 t_x#9#1 t_x#9#2 t_x#9#3 t_x#9#4 t_x#9#5 t_x#9#6 t_x#9#7 t_x#9#8 t_x#9#9 t_x#9#10
 t_x#10#1 t_x#10#2 t_x#10#3 t_x#10#4 t_x#10#5 t_x#10#6 t_x#10#7 t_x#10#8 t_x#10#9
Generals
 t_y#1#10 t_y#10#1 t_y#1#1 t_y#9#10 t_y#8#10 t_y#7#10 t_y#6#10 t_y#5#10 t_y#4#10 t_y#3#10 t_y#2#10 t_y#9#1
 t_y#8#1 t_y#7#1 t_y#6#1 t_y#5#1 t_y#4#1 t_y#3#1 t_y#2#1 t_y#10#9 t_y#10#8 t_y#10#7 t_y#10#6 t_y#10#5
 t_y#10#4 t_y#10#3 t_y#10#2 t_y#1#9 t_y#1#8 t_y#1#7 t_y#1#6 t_y#1#5 t_y#1#4 t_y#1#3 t_y#1#2 t_y#9#9 t_y#9#8
 t_y#9#7 t_y#9#6 t_y#9#5 t_y#9#4 t_y#9#3 t_y#9#2 t_y#8#9 t_y#8#8 t_y#8#7 t_y#8#6 t_y#8#5 t_y#8#4 t_y#8#3
 t_y#8#2 t_y#7#9 t_y#7#8 t_y#7#7 t_y#7#6 t_y#7#5 t_y#7#4 t_y#7#3 t_y#7#2 t_y#6#9 t_y#6#8 t_y#6#7 t_y#6#6
 t_y#6#5 t_y#6#4 t_y#6#3 t_y#6#2 t_y#5#9 t_y#5#8 t_y#5#7 t_y#5#6 t_y#5#5 t_y#5#4 t_y#5#3 t_y#5#2 t_y#4#9
 t_y#4#8 t_y#4#7 t_y#4#6 t_y#4#5 t_y#4#4 t_y#4#3 t_y#4#2 t_y#3#9 t_y#3#8 t_y#3#7 t_y#3#6 t_y#3#5 t_y#3#4
 t_y#3#3 t_y#3#2 t_y#2#9 t_y#2#8 t_y#2#7 t_y#2#6 t_y#2#5 t_y#2#4 t_y#2#3 t_y#2#2 t_y#10#10
End
